0 1 901
0 2 770
0 3 122
0 4 994
0 5 267
0 6 254
0 7 466
0 8 139
0 9 138
0 10 674
0 11 610
0 12 856
0 13 652
0 14 439
0 15 325
0 16 175
0 17 98
0 18 483
0 19 438
0 20 70
0 21 148
0 22 608
0 23 649
0 24 930
0 25 512
0 26 860
0 27 281
0 28 72
0 29 348
0 30 761
0 31 912
0 32 109
0 33 698
0 34 699
0 35 105
0 36 570
0 37 720
0 38 506
0 39 698
0 40 646
0 41 167
0 42 49
0 43 908
0 44 608
0 45 685
0 46 668
0 47 764
0 48 336
0 49 567
1 2 315
1 3 104
1 4 995
1 5 704
1 6 677
1 7 625
1 8 163
1 9 412
1 10 668
1 11 200
1 12 46
1 13 438
1 14 408
1 15 918
1 16 109
1 17 589
1 18 775
1 19 442
1 20 949
1 21 378
1 22 34
1 23 446
1 24 259
1 25 35
1 26 945
1 27 845
1 28 317
1 29 569
1 30 994
1 31 281
1 32 881
1 33 829
1 34 83
1 35 723
1 36 598
1 37 882
1 38 281
1 39 62
1 40 782
1 41 749
1 42 903
1 43 457
1 44 142
1 45 336
1 46 234
1 47 299
1 48 713
1 49 903
2 3 363
2 4 989
2 5 259
2 6 945
2 7 383
2 8 657
2 9 569
2 10 717
2 11 272
2 12 373
2 13 459
2 14 125
2 15 684
2 16 533
2 17 624
2 18 524
2 19 458
2 20 387
2 21 282
2 22 780
2 23 756
2 24 421
2 25 904
2 26 737
2 27 677
2 28 686
2 29 296
2 30 472
2 31 872
2 32 536
2 33 681
2 34 832
2 35 722
2 36 96
2 37 686
2 38 888
2 39 190
2 40 201
2 41 527
2 42 137
2 43 425
2 44 927
2 45 655
2 46 868
2 47 645
2 48 395
2 49 111
3 4 577
3 5 46
3 6 64
3 7 687
3 8 858
3 9 789
3 10 469
3 11 848
3 12 413
3 13 360
3 14 750
3 15 312
3 16 977
3 17 163
3 18 965
3 19 381
3 20 299
3 21 267
3 22 784
3 23 594
3 24 763
3 25 777
3 26 591
3 27 200
3 28 679
3 29 164
3 30 180
3 31 114
3 32 70
3 33 504
3 34 749
3 35 33
3 36 633
3 37 40
3 38 666
3 39 944
3 40 300
3 41 655
3 42 738
3 43 3
3 44 301
3 45 788
3 46 215
3 47 692
3 48 941
3 49 969
4 5 898
4 6 799
4 7 488
4 8 170
4 9 185
4 10 805
4 11 544
4 12 656
4 13 725
4 14 730
4 15 557
4 16 334
4 17 214
4 18 535
4 19 696
4 20 492
4 21 566
4 22 451
4 23 787
4 24 391
4 25 330
4 26 311
4 27 939
4 28 13
4 29 61
4 30 54
4 31 888
4 32 84
4 33 250
4 34 379
4 35 204
4 36 404
4 37 310
4 38 753
4 39 992
4 40 949
4 41 950
4 42 34
4 43 680
4 44 235
4 45 149
4 46 547
4 47 117
4 48 93
4 49 86
5 6 666
5 7 831
5 8 885
5 9 498
5 10 311
5 11 730
5 12 279
5 13 545
5 14 517
5 15 585
5 16 917
5 17 44
5 18 969
5 19 701
5 20 835
5 21 610
5 22 810
5 23 268
5 24 500
5 25 970
5 26 26
5 27 935
5 28 972
5 29 292
5 30 269
5 31 221
5 32 944
5 33 3
5 34 352
5 35 67
5 36 804
5 37 898
5 38 79
5 39 49
5 40 438
5 41 765
5 42 904
5 43 28
5 44 132
5 45 528
5 46 617
5 47 686
5 48 27
5 49 133
6 7 143
6 8 448
6 9 417
6 10 334
6 11 131
6 12 112
6 13 664
6 14 251
6 15 814
6 16 401
6 17 763
6 18 906
6 19 599
6 20 527
6 21 736
6 22 720
6 23 770
6 24 222
6 25 554
6 26 489
6 27 555
6 28 885
6 29 823
6 30 55
6 31 473
6 32 597
6 33 560
6 34 721
6 35 139
6 36 498
6 37 123
6 38 716
6 39 594
6 40 174
6 41 137
6 42 331
6 43 788
6 44 716
6 45 463
6 46 214
6 47 52
6 48 864
6 49 7
7 8 589
7 9 678
7 10 591
7 11 687
7 12 964
7 13 200
7 14 500
7 15 825
7 16 516
7 17 273
7 18 599
7 19 199
7 20 282
7 21 702
7 22 818
7 23 239
7 24 442
7 25 151
7 26 280
7 27 364
7 28 561
7 29 169
7 30 570
7 31 231
7 32 159
7 33 923
7 34 658
7 35 378
7 36 196
7 37 371
7 38 385
7 39 765
7 40 94
7 41 130
7 42 11
7 43 6
7 44 18
7 45 156
7 46 222
7 47 267
7 48 167
7 49 979
8 9 830
8 10 891
8 11 352
8 12 410
8 13 161
8 14 62
8 15 700
8 16 654
8 17 286
8 18 22
8 19 29
8 20 49
8 21 234
8 22 98
8 23 105
8 24 38
8 25 643
8 26 236
8 27 183
8 28 776
8 29 659
8 30 479
8 31 247
8 32 626
8 33 704
8 34 174
8 35 926
8 36 41
8 37 401
8 38 401
8 39 264
8 40 684
8 41 683
8 42 537
8 43 770
8 44 663
8 45 369
8 46 940
8 47 258
8 48 715
8 49 908
9 10 551
9 11 100
9 12 69
9 13 701
9 14 137
9 15 604
9 16 419
9 17 239
9 18 265
9 19 493
9 20 412
9 21 247
9 22 165
9 23 663
9 24 333
9 25 606
9 26 185
9 27 495
9 28 851
9 29 564
9 30 392
9 31 386
9 32 115
9 33 298
9 34 493
9 35 838
9 36 180
9 37 411
9 38 899
9 39 861
9 40 5
9 41 652
9 42 675
9 43 598
9 44 694
9 45 381
9 46 851
9 47 370
9 48 63
9 49 832
10 11 83
10 12 252
10 13 728
10 14 674
10 15 66
10 16 603
10 17 871
10 18 318
10 19 237
10 20 778
10 21 287
10 22 167
10 23 286
10 24 972
10 25 751
10 26 517
10 27 933
10 28 496
10 29 955
10 30 409
10 31 189
10 32 174
10 33 535
10 34 458
10 35 968
10 36 557
10 37 310
10 38 515
10 39 201
10 40 345
10 41 499
10 42 281
10 43 493
10 44 24
10 45 462
10 46 469
10 47 714
10 48 498
10 49 439
11 12 518
11 13 782
11 14 444
11 15 415
11 16 50
11 17 26
11 18 410
11 19 519
11 20 770
11 21 536
11 22 834
11 23 965
11 24 326
11 25 355
11 26 29
11 27 164
11 28 305
11 29 788
11 30 202
11 31 141
11 32 953
11 33 294
11 34 499
11 35 226
11 36 529
11 37 402
11 38 382
11 39 553
11 40 899
11 41 401
11 42 714
11 43 56
11 44 223
11 45 701
11 46 742
11 47 898
11 48 472
11 49 12
12 13 226
12 14 841
12 15 985
12 16 844
12 17 249
12 18 225
12 19 324
12 20 551
12 21 448
12 22 965
12 23 784
12 24 602
12 25 2
12 26 322
12 27 904
12 28 588
12 29 590
12 30 298
12 31 201
12 32 12
12 33 616
12 34 13
12 35 842
12 36 723
12 37 67
12 38 190
12 39 707
12 40 417
12 41 209
12 42 919
12 43 643
12 44 123
12 45 564
12 46 559
12 47 939
12 48 733
12 49 433
13 14 352
13 15 415
13 16 271
13 17 312
13 18 309
13 19 738
13 20 131
13 21 276
13 22 501
13 23 7
13 24 525
13 25 381
13 26 685
13 27 44
13 28 388
13 29 302
13 30 809
13 31 718
13 32 734
13 33 818
13 34 703
13 35 469
13 36 901
13 37 404
13 38 453
13 39 894
13 40 406
13 41 168
13 42 898
13 43 564
13 44 326
13 45 240
13 46 713
13 47 498
13 48 295
13 49 792
14 15 403
14 16 755
14 17 445
14 18 277
14 19 137
14 20 778
14 21 785
14 22 0
14 23 717
14 24 409
14 25 82
14 26 50
14 27 847
14 28 658
14 29 521
14 30 710
14 31 1000
14 32 454
14 33 410
14 34 376
14 35 250
14 36 10
14 37 436
14 38 732
14 39 426
14 40 76
14 41 923
14 42 770
14 43 699
14 44 802
14 45 95
14 46 370
14 47 842
14 48 3
14 49 342
15 16 502
15 17 388
15 18 107
15 19 462
15 20 398
15 21 760
15 22 117
15 23 952
15 24 284
15 25 511
15 26 957
15 27 269
15 28 265
15 29 827
15 30 769
15 31 188
15 32 2
15 33 381
15 34 756
15 35 338
15 36 367
15 37 759
15 38 344
15 39 468
15 40 776
15 41 109
15 42 234
15 43 759
15 44 66
15 45 496
15 46 262
15 47 88
15 48 663
15 49 524
16 17 691
16 18 239
16 19 191
16 20 647
16 21 687
16 22 841
16 23 434
16 24 284
16 25 880
16 26 707
16 27 616
16 28 904
16 29 238
16 30 109
16 31 18
16 32 764
16 33 231
16 34 378
16 35 307
16 36 371
16 37 888
16 38 399
16 39 178
16 40 830
16 41 612
16 42 800
16 43 66
16 44 602
16 45 326
16 46 593
16 47 221
16 48 2
16 49 157
17 18 826
17 19 961
17 20 263
17 21 212
17 22 268
17 23 240
17 24 775
17 25 580
17 26 189
17 27 27
17 28 67
17 29 715
17 30 74
17 31 336
17 32 243
17 33 83
17 34 246
17 35 726
17 36 796
17 37 219
17 38 202
17 39 778
17 40 141
17 41 75
17 42 290
17 43 952
17 44 748
17 45 517
17 46 875
17 47 441
17 48 276
17 49 19
18 19 933
18 20 118
18 21 320
18 22 439
18 23 185
18 24 386
18 25 216
18 26 233
18 27 968
18 28 752
18 29 11
18 30 31
18 31 577
18 32 467
18 33 172
18 34 924
18 35 692
18 36 609
18 37 922
18 38 864
18 39 946
18 40 284
18 41 375
18 42 41
18 43 273
18 44 599
18 45 577
18 46 545
18 47 317
18 48 119
18 49 89
19 20 506
19 21 625
19 22 762
19 23 197
19 24 590
19 25 681
19 26 197
19 27 927
19 28 861
19 29 639
19 30 252
19 31 435
19 32 997
19 33 453
19 34 965
19 35 175
19 36 779
19 37 753
19 38 782
19 39 544
19 40 360
19 41 911
19 42 30
19 43 843
19 44 155
19 45 559
19 46 962
19 47 802
19 48 605
19 49 577
20 21 946
20 22 651
20 23 899
20 24 983
20 25 75
20 26 132
20 27 729
20 28 604
20 29 872
20 30 656
20 31 395
20 32 255
20 33 792
20 34 261
20 35 786
20 36 501
20 37 371
20 38 710
20 39 574
20 40 486
20 41 299
20 42 289
20 43 301
20 44 489
20 45 885
20 46 531
20 47 212
20 48 371
20 49 997
21 22 774
21 23 596
21 24 388
21 25 343
21 26 161
21 27 420
21 28 343
21 29 315
21 30 899
21 31 821
21 32 827
21 33 357
21 34 126
21 35 862
21 36 55
21 37 603
21 38 506
21 39 738
21 40 903
21 41 847
21 42 973
21 43 581
21 44 894
21 45 890
21 46 973
21 47 124
21 48 501
21 49 92
22 23 10
22 24 752
22 25 571
22 26 408
22 27 785
22 28 845
22 29 439
22 30 262
22 31 809
22 32 303
22 33 222
22 34 91
22 35 82
22 36 210
22 37 854
22 38 705
22 39 928
22 40 625
22 41 366
22 42 890
22 43 596
22 44 696
22 45 346
22 46 463
22 47 116
22 48 976
22 49 655
23 24 398
23 25 663
23 26 397
23 27 291
23 28 170
23 29 624
23 30 88
23 31 379
23 32 490
23 33 253
23 34 223
23 35 530
23 36 720
23 37 994
23 38 408
23 39 453
23 40 494
23 41 535
23 42 241
23 43 589
23 44 459
23 45 387
23 46 362
23 47 317
23 48 720
23 49 717
24 25 285
24 26 42
24 27 553
24 28 431
24 29 646
24 30 337
24 31 149
24 32 169
24 33 405
24 34 272
24 35 776
24 36 971
24 37 361
24 38 846
24 39 989
24 40 510
24 41 452
24 42 850
24 43 927
24 44 515
24 45 683
24 46 986
24 47 436
24 48 510
24 49 107
25 26 93
25 27 77
25 28 815
25 29 290
25 30 482
25 31 935
25 32 471
25 33 642
25 34 229
25 35 587
25 36 795
25 37 5
25 38 626
25 39 170
25 40 934
25 41 962
25 42 374
25 43 396
25 44 36
25 45 788
25 46 87
25 47 652
25 48 973
25 49 569
26 27 885
26 28 5
26 29 496
26 30 2
26 31 958
26 32 985
26 33 64
26 34 177
26 35 490
26 36 340
26 37 354
26 38 546
26 39 741
26 40 434
26 41 678
26 42 796
26 43 106
26 44 57
26 45 789
26 46 761
26 47 773
26 48 679
26 49 87
27 28 454
27 29 940
27 30 215
27 31 446
27 32 242
27 33 138
27 34 935
27 35 799
27 36 928
27 37 327
27 38 671
27 39 974
27 40 795
27 41 795
27 42 138
27 43 436
27 44 221
27 45 257
27 46 135
27 47 470
27 48 999
27 49 568
28 29 295
28 30 653
28 31 192
28 32 100
28 33 416
28 34 986
28 35 216
28 36 657
28 37 238
28 38 279
28 39 459
28 40 559
28 41 598
28 42 546
28 43 547
28 44 159
28 45 752
28 46 854
28 47 52
28 48 579
28 49 324
29 30 902
29 31 516
29 32 111
29 33 882
29 34 299
29 35 775
29 36 530
29 37 917
29 38 514
29 39 353
29 40 500
29 41 167
29 42 339
29 43 888
29 44 799
29 45 87
29 46 330
29 47 603
29 48 648
29 49 604
30 31 33
30 32 752
30 33 198
30 34 936
30 35 28
30 36 557
30 37 17
30 38 750
30 39 970
30 40 977
30 41 280
30 42 574
30 43 445
30 44 343
30 45 663
30 46 728
30 47 694
30 48 401
30 49 805
31 32 401
31 33 917
31 34 284
31 35 213
31 36 210
31 37 936
31 38 827
31 39 892
31 40 259
31 41 676
31 42 250
31 43 632
31 44 680
31 45 320
31 46 89
31 47 368
31 48 576
31 49 143
32 33 997
32 34 861
32 35 506
32 36 749
32 37 23
32 38 1
32 39 114
32 40 989
32 41 285
32 42 757
32 43 246
32 44 772
32 45 720
32 46 523
32 47 468
32 48 298
32 49 892
33 34 882
33 35 990
33 36 56
33 37 550
33 38 82
33 39 906
33 40 580
33 41 478
33 42 782
33 43 376
33 44 126
33 45 600
33 46 970
33 47 778
33 48 99
33 49 60
34 35 780
34 36 640
34 37 808
34 38 704
34 39 392
34 40 991
34 41 251
34 42 700
34 43 412
34 44 4
34 45 127
34 46 929
34 47 562
34 48 987
34 49 876
35 36 73
35 37 907
35 38 810
35 39 406
35 40 724
35 41 826
35 42 835
35 43 219
35 44 937
35 45 531
35 46 702
35 47 43
35 48 354
35 49 279
36 37 422
36 38 561
36 39 444
36 40 494
36 41 207
36 42 370
36 43 112
36 44 803
36 45 224
36 46 685
36 47 622
36 48 338
36 49 695
37 38 722
37 39 639
37 40 584
37 41 619
37 42 721
37 43 477
37 44 781
37 45 456
37 46 193
37 47 523
37 48 4
37 49 76
38 39 257
38 40 13
38 41 545
38 42 169
38 43 609
38 44 595
38 45 902
38 46 345
38 47 279
38 48 585
38 49 739
39 40 417
39 41 380
39 42 611
39 43 359
39 44 982
39 45 276
39 46 242
39 47 595
39 48 254
39 49 847
40 41 830
40 42 581
40 43 106
40 44 199
40 45 266
40 46 710
40 47 752
40 48 530
40 49 775
41 42 608
41 43 240
41 44 10
41 45 128
41 46 517
41 47 116
41 48 607
41 49 6
42 43 907
42 44 557
42 45 238
42 46 250
42 47 552
42 48 832
42 49 283
43 44 447
43 45 95
43 46 901
43 47 549
43 48 358
43 49 627
44 45 628
44 46 632
44 47 431
44 48 46
44 49 370
45 46 896
45 47 559
45 48 905
45 49 306
46 47 666
46 48 768
46 49 192
47 48 715
47 49 554
48 49 379
